100 76393

 426 419
277 726
227 795
745 211
552 365
323 76
153 660
639 321
237 725
998 433
55 109
980 641
436 522
684 47
109 379
866 827
981 96
184 958
951 103
368 892
983 854
198 146
371 880
373 942
973 928
497 27
599 732
201 530
849 679
509 945
322 989
275 82
211 428
504 584
903 822
118 479
703 766
554 162
42 839
315 932
788 402
329 508
17 38
283 955
943 511
258 393
575 713
574 494
612 200
19 255
529 179
837 547
423 594
466 389
373 398
758 732
763 158
967 4
81 167
551 468
548 960
424 409
429 412
388 204
998 194
921 235
709 718
670 150
204 159
196 279
728 816
285 404
969 893
196 678
307 311
664 68
14 463
837 88
146 217
938 1
57 135
723 697
780 351
210 140
529 618
798 133
344 620
715 178
611 810
279 358
209 380
641 908
335 871
288 658
252 450
265 586
271 463
924 990
920 108
700 122
